Minimize
  50.01 d0plus + 44.2 d1plus + 27.08 d2plus + 99.15 d3plus + 4.33 d4plus
   + 22.1 d5plus + 11.11 d6plus + 12.12 d7plus + 23.44 d8plus + 1.01 d9plus
   + 50.01 d0minus + 44.2 d1minus + 27.08 d2minus + 99.15 d3minus
   + 4.33 d4minus + 22.1 d5minus + 11.11 d6minus + 12.12 d7minus
   + 23.44 d8minus + 1.01 d9minus
Subject To
 1a_0: 45.009 d0plus - 4.42 d1plus - 2.708 d2plus - 9.915 d3plus
   - 0.433 d4plus - 2.21 d5plus - 1.111 d6plus - 1.212 d7plus
   - 2.344 d8plus - 0.101 d9plus - 45.009 d0minus + 4.42 d1minus
   + 2.708 d2minus + 9.915 d3minus + 0.433 d4minus + 2.21 d5minus
   + 1.111 d6minus + 1.212 d7minus + 2.344 d8minus + 0.101 d9minus
   = 527.139
 1a_1: - 5.001 d0plus + 39.78 d1plus - 2.708 d2plus - 9.915 d3plus
   - 0.433 d4plus - 2.21 d5plus - 1.111 d6plus - 1.212 d7plus
   - 2.344 d8plus - 0.101 d9plus + 5.001 d0minus - 39.78 d1minus
   + 2.708 d2minus + 9.915 d3minus + 0.433 d4minus + 2.21 d5minus
   + 1.111 d6minus + 1.212 d7minus + 2.344 d8minus + 0.101 d9minus
   = -3392.760999999999
 1a_2: - 5.001 d0plus - 4.42 d1plus + 24.372 d2plus - 9.915 d3plus
   - 0.433 d4plus - 2.21 d5plus - 1.111 d6plus - 1.212 d7plus
   - 2.344 d8plus - 0.101 d9plus + 5.001 d0minus + 4.42 d1minus
   - 24.372 d2minus + 9.915 d3minus + 0.433 d4minus + 2.21 d5minus
   + 1.111 d6minus + 1.212 d7minus + 2.344 d8minus + 0.101 d9minus
   = 404.399
 1a_3: - 5.001 d0plus - 4.42 d1plus - 2.708 d2plus + 89.235 d3plus
   - 0.433 d4plus - 2.21 d5plus - 1.111 d6plus - 1.212 d7plus
   - 2.344 d8plus - 0.101 d9plus + 5.001 d0minus + 4.42 d1minus
   + 2.708 d2minus - 89.235 d3minus + 0.433 d4minus + 2.21 d5minus
   + 1.111 d6minus + 1.212 d7minus + 2.344 d8minus + 0.101 d9minus
   = -1154.061
 1a_4: - 5.001 d0plus - 4.42 d1plus - 2.708 d2plus - 9.915 d3plus
   + 3.897 d4plus - 2.21 d5plus - 1.111 d6plus - 1.212 d7plus
   - 2.344 d8plus - 0.101 d9plus + 5.001 d0minus + 4.42 d1minus
   + 2.708 d2minus + 9.915 d3minus - 3.897 d4minus + 2.21 d5minus
   + 1.111 d6minus + 1.212 d7minus + 2.344 d8minus + 0.101 d9minus
   = 836.719
 1a_5: - 5.001 d0plus - 4.42 d1plus - 2.708 d2plus - 9.915 d3plus
   - 0.433 d4plus + 19.89 d5plus - 1.111 d6plus - 1.212 d7plus
   - 2.344 d8plus - 0.101 d9plus + 5.001 d0minus + 4.42 d1minus
   + 2.708 d2minus + 9.915 d3minus + 0.433 d4minus - 19.89 d5minus
   + 1.111 d6minus + 1.212 d7minus + 2.344 d8minus + 0.101 d9minus
   = 1027.239
 1a_6: - 5.001 d0plus - 4.42 d1plus - 2.708 d2plus - 9.915 d3plus
   - 0.433 d4plus - 2.21 d5plus + 9.999 d6plus - 1.212 d7plus
   - 2.344 d8plus - 0.101 d9plus + 5.001 d0minus + 4.42 d1minus
   + 2.708 d2minus + 9.915 d3minus + 0.433 d4minus + 2.21 d5minus
   - 9.999 d6minus + 1.212 d7minus + 2.344 d8minus + 0.101 d9minus
   = -661.481
 1a_7: - 5.001 d0plus - 4.42 d1plus - 2.708 d2plus - 9.915 d3plus
   - 0.433 d4plus - 2.21 d5plus - 1.111 d6plus + 10.908 d7plus
   - 2.344 d8plus - 0.101 d9plus + 5.001 d0minus + 4.42 d1minus
   + 2.708 d2minus + 9.915 d3minus + 0.433 d4minus + 2.21 d5minus
   + 1.111 d6minus - 10.908 d7minus + 2.344 d8minus + 0.101 d9minus
   = 760.599
 1a_8: - 5.001 d0plus - 4.42 d1plus - 2.708 d2plus - 9.915 d3plus
   - 0.433 d4plus - 2.21 d5plus - 1.111 d6plus - 1.212 d7plus
   + 21.096 d8plus - 0.101 d9plus + 5.001 d0minus + 4.42 d1minus
   + 2.708 d2minus + 9.915 d3minus + 0.433 d4minus + 2.21 d5minus
   + 1.111 d6minus + 1.212 d7minus - 21.096 d8minus + 0.101 d9minus
   = 769.399
 1a_9: - 5.001 d0plus - 4.42 d1plus - 2.708 d2plus - 9.915 d3plus
   - 0.433 d4plus - 2.21 d5plus - 1.111 d6plus - 1.212 d7plus
   - 2.344 d8plus + 0.909 d9plus + 5.001 d0minus + 4.42 d1minus
   + 2.708 d2minus + 9.915 d3minus + 0.433 d4minus + 2.21 d5minus
   + 1.111 d6minus + 1.212 d7minus + 2.344 d8minus - 0.909 d9minus
   = 882.809
Bounds
 d0plus <= 1e+10
 d1plus <= 1e+10
 d2plus <= 1e+10
 d3plus <= 1e+10
 d4plus <= 1e+10
 d5plus <= 1e+10
 d6plus <= 1e+10
 d7plus <= 1e+10
 d8plus <= 1e+10
 d9plus <= 1e+10
 d0minus <= 10
 d1minus <= 100
 d2minus <= 23
 d3minus <= 22
 d4minus <= 44
 d5minus = 0
 d6minus <= 152
 d7minus <= 22
 d8minus <= 11
 d9minus <= 143
End
